num_offers = 25;
num_halls = 10;
start=[4,77,33,4,15,1,62,20,74,50,22,17,34,64,62,6,17,17,8,20,18,18,1,5,10];
end=[41,92,38,39,91,46,67,50,87,88,46,98,98,73,69,99,22,71,29,91,87,98,61,86,60];
price=[1945,1326,325,1370,5113,727,387,2236,817,3194,2465,1555,2152,972,250,7945,525,2131,1014,6872,1439,5882,6000,2716,1616];
requirement=[249,801,880,604,281,277,647,237,582,542,618,366,420,507,392,414,281,358,309,648,306,319,530,748,301];
capacity=[652,739,598,366,834,459,929,989,655,624];
